(set-logic LIA)
(synth-fun next ((brake Int) (distance Int) (speed Int) (throttle Int) (ignition Bool) (time Int) ) Int
	((Start Int) (Var Int) (StartBool Bool))
	((Start Int (
				 5
				 6
				 7
				 (ite StartBool Start Start)))

	(Var Int (
			 0
			 1
			 2
			 3
			 215
			 1430
			 brake
			 distance
			 speed
			 throttle
			 time
			 (+ Var Var)						
			 (- Var Var)						
			 (* Var Var)))

	(StartBool Bool (
				 	 ignition
					(= Var Var)						
					(>= Var Var)						
					(<= Var Var)						
					(and StartBool StartBool)			
					(or  StartBool StartBool)				
					(not StartBool)))))

(constraint (= (next 0 0 0 0 true 1631 ) 5))
(constraint (= (next 0 0 0 0 true 1204 ) 6))
(constraint (= (next 0 0 6 0 true 1455 ) 7))

(check-synth)
